;; sequence(s): A55582
;; terms: 1 9 48 198 699 2223 6562 18324 49029 126837 319332 786258 1900351 4521771 10616598 24641280 56622825 128974545 291503800 654311070
;; small program: loop((loop((loop(loop(x + y, 1 + y, x) + x, y, 1) + x) + x, y, 1) + x) + x, x, 1)
;; fast program: loop(loop((loop(loop(if x <= 0 then 1 else loop(x + x, x - 1, 2 + ((x * x) + x)), 1, y) + x, x, 1) * 2) - x, 1, y) + x, x, 1) - x
(set-logic UFNIA)
(declare-fun f3 (Int Int) Int)
(declare-fun g3 (Int Int) Int)
(declare-fun h3 (Int) Int)
(declare-fun u3 (Int Int) Int)
(declare-fun v3 (Int Int) Int)
(declare-fun f2 (Int Int) Int)
(declare-fun g2 (Int Int) Int)
(declare-fun h2 () Int)
(declare-fun u2 (Int Int) Int)
(declare-fun v2 (Int Int) Int)
(declare-fun f1 (Int Int) Int)
(declare-fun g1 (Int Int) Int)
(declare-fun h1 () Int)
(declare-fun u1 (Int Int) Int)
(declare-fun v1 (Int Int) Int)
(declare-fun f0 (Int Int) Int)
(declare-fun g0 (Int) Int)
(declare-fun h0 () Int)
(declare-fun u0 (Int Int) Int)
(declare-fun v0 (Int) Int)
(declare-fun small (Int) Int)
(declare-fun f8 (Int) Int)
(declare-fun g8 (Int) Int)
(declare-fun h8 (Int) Int)
(declare-fun u8 (Int Int) Int)
(declare-fun v8 (Int) Int)
(declare-fun f7 (Int) Int)
(declare-fun g7 () Int)
(declare-fun h7 (Int Int) Int)
(declare-fun u7 (Int Int) Int)
(declare-fun v7 (Int Int) Int)
(declare-fun f6 (Int Int) Int)
(declare-fun g6 (Int) Int)
(declare-fun h6 () Int)
(declare-fun u6 (Int Int) Int)
(declare-fun v6 (Int) Int)
(declare-fun f5 (Int) Int)
(declare-fun g5 () Int)
(declare-fun h5 (Int Int) Int)
(declare-fun u5 (Int Int) Int)
(declare-fun v5 (Int Int) Int)
(declare-fun f4 (Int Int) Int)
(declare-fun g4 (Int) Int)
(declare-fun h4 () Int)
(declare-fun u4 (Int Int) Int)
(declare-fun v4 (Int) Int)
(declare-fun fast (Int) Int)
(assert (forall ((x Int) (y Int)) (= (f3 x y) (+ x y))))
(assert (forall ((x Int) (y Int)) (= (g3 x y) (+ 1 y))))
(assert (forall ((x Int)) (= (h3 x) x)))
(assert (forall ((x Int) (y Int)) (= (u3 x y) (ite (<= x 0) y (f3 (u3 (- x 1) y) x)))))
(assert (forall ((x Int) (y Int)) (= (v3 x y) (u3 (g3 x y) (h3 x)))))
(assert (forall ((x Int) (y Int)) (= (f2 x y) (+ (v3 x y) x))))
(assert (forall ((x Int) (y Int)) (= (g2 x y) y)))
(assert (= h2 1))
(assert (forall ((x Int) (y Int)) (= (u2 x y) (ite (<= x 0) y (f2 (u2 (- x 1) y) x)))))
(assert (forall ((x Int) (y Int)) (= (v2 x y) (u2 (g2 x y) h2))))
(assert (forall ((x Int) (y Int)) (= (f1 x y) (+ (+ (v2 x y) x) x))))
(assert (forall ((x Int) (y Int)) (= (g1 x y) y)))
(assert (= h1 1))
(assert (forall ((x Int) (y Int)) (= (u1 x y) (ite (<= x 0) y (f1 (u1 (- x 1) y) x)))))
(assert (forall ((x Int) (y Int)) (= (v1 x y) (u1 (g1 x y) h1))))
(assert (forall ((x Int) (y Int)) (= (f0 x y) (+ (+ (v1 x y) x) x))))
(assert (forall ((x Int)) (= (g0 x) x)))
(assert (= h0 1))
(assert (forall ((x Int) (y Int)) (= (u0 x y) (ite (<= x 0) y (f0 (u0 (- x 1) y) x)))))
(assert (forall ((x Int)) (= (v0 x) (u0 (g0 x) h0))))
(assert (forall ((x Int)) (= (small x) (v0 x))))
(assert (forall ((x Int)) (= (f8 x) (+ x x))))
(assert (forall ((x Int)) (= (g8 x) (- x 1))))
(assert (forall ((x Int)) (= (h8 x) (+ 2 (+ (* x x) x)))))
(assert (forall ((x Int) (y Int)) (= (u8 x y) (ite (<= x 0) y (f8 (u8 (- x 1) y))))))
(assert (forall ((x Int)) (= (v8 x) (u8 (g8 x) (h8 x)))))
(assert (forall ((x Int)) (= (f7 x) (ite (<= x 0) 1 (v8 x)))))
(assert (= g7 1))
(assert (forall ((x Int) (y Int)) (= (h7 x y) y)))
(assert (forall ((x Int) (y Int)) (= (u7 x y) (ite (<= x 0) y (f7 (u7 (- x 1) y))))))
(assert (forall ((x Int) (y Int)) (= (v7 x y) (u7 g7 (h7 x y)))))
(assert (forall ((x Int) (y Int)) (= (f6 x y) (+ (v7 x y) x))))
(assert (forall ((x Int)) (= (g6 x) x)))
(assert (= h6 1))
(assert (forall ((x Int) (y Int)) (= (u6 x y) (ite (<= x 0) y (f6 (u6 (- x 1) y) x)))))
(assert (forall ((x Int)) (= (v6 x) (u6 (g6 x) h6))))
(assert (forall ((x Int)) (= (f5 x) (- (* (v6 x) 2) x))))
(assert (= g5 1))
(assert (forall ((x Int) (y Int)) (= (h5 x y) y)))
(assert (forall ((x Int) (y Int)) (= (u5 x y) (ite (<= x 0) y (f5 (u5 (- x 1) y))))))
(assert (forall ((x Int) (y Int)) (= (v5 x y) (u5 g5 (h5 x y)))))
(assert (forall ((x Int) (y Int)) (= (f4 x y) (+ (v5 x y) x))))
(assert (forall ((x Int)) (= (g4 x) x)))
(assert (= h4 1))
(assert (forall ((x Int) (y Int)) (= (u4 x y) (ite (<= x 0) y (f4 (u4 (- x 1) y) x)))))
(assert (forall ((x Int)) (= (v4 x) (u4 (g4 x) h4))))
(assert (forall ((x Int)) (= (fast x) (- (v4 x) x))))
(assert (exists ((c Int)) (and (>= c 0) (not (= (small c) (fast c))))))
(check-sat)
